Translating instance to solver...

GLPSOL--GLPK LP/MIP Solver 5.0
Parameter(s) specified in the command line:
 --tmlim 28800 --mipgap 0.001 --write /tmp/tmpewrmw52_.glpk.raw --wglp /tmp/tmpaqw557dp.glpk.glp
 --cpxlp /tmp/tmp9psi5280.pyomo.lp
Reading problem data from '/tmp/tmp9psi5280.pyomo.lp'...
/tmp/tmp9psi5280.pyomo.lp:738804: warning: lower bound of variable 'x2' redefined
/tmp/tmp9psi5280.pyomo.lp:738804: warning: upper bound of variable 'x2' redefined
129056 rows, 60952 columns, 290471 non-zeros
60952 integer variables, 60900 of which are binary
799704 lines were read
Writing problem data to '/tmp/tmpaqw557dp.glpk.glp'...
576173 lines were written
GLPK Integer Optimizer 5.0
129056 rows, 60952 columns, 290471 non-zeros
60952 integer variables, 60900 of which are binary
Preprocessing...
250 hidden packing inequaliti(es) were detected
22450 hidden covering inequaliti(es) were detected
100 constraint coefficient(s) were reduced
80738 rows, 31251 columns, 200819 non-zeros
31251 integer variables, 31200 of which are binary
Scaling...
 A: min|aij| =  1.000e+00  max|aij| =  6.000e+01  ratio =  6.000e+01
GM: min|aij| =  3.630e-01  max|aij| =  2.755e+00  ratio =  7.590e+00
EQ: min|aij| =  1.684e-01  max|aij| =  1.000e+00  ratio =  5.936e+00
2N: min|aij| =  1.250e-01  max|aij| =  1.438e+00  ratio =  1.150e+01
Constructing initial basis...
Size of triangular part is 80738
Solving LP relaxation...
GLPK Simplex Optimizer 5.0
80738 rows, 31251 columns, 200819 non-zeros
      0: obj =   0.000000000e+00 inf =   4.519e+01 (105)
Perturbing LP to avoid stalling [308]...
   2135: obj =   5.803464679e+00 inf =   3.959e-07 (0) 4
Removing LP perturbation [4177]...
*  4177: obj =   9.176730000e-01 inf =   0.000e+00 (0) 7
OPTIMAL LP SOLUTION FOUND
Integer optimization begins...
Long-step dual simplex will be used
+  4177: mip =     not found yet >=              -inf        (1; 0)
+  5581: mip =     not found yet >=   9.176730000e-01        (6; 0)
+  6676: mip =     not found yet >=   9.176730000e-01        (12; 1)
+  8358: mip =     not found yet >=   9.176730000e-01        (20; 1)
+  9552: mip =     not found yet >=   9.176730000e-01        (25; 3)
+ 10334: mip =     not found yet >=   9.176730000e-01        (37; 5)
+ 11242: mip =     not found yet >=   9.176730000e-01        (52; 7)
+ 11469: mip =     not found yet >=   9.176730000e-01        (62; 8)
+ 11552: >>>>>   9.176730000e-01 >=   9.176730000e-01 < 0.1% (63; 9)
+ 11552: mip =   9.176730000e-01 >=     tree is empty   0.0% (0; 143)
INTEGER OPTIMAL SOLUTION FOUND
Time used:   45.3 secs
Memory used: 135.2 Mb (141752061 bytes)
Writing MIP solution to '/tmp/tmpewrmw52_.glpk.raw'...
190017 lines were written

Results:

E = 0.9176730000000001 mA
C = 15.0 points
C ~= 6.0 km^2

Minimum Epsilon for this instance = 9
Maximum Epsilon for this instance = 98
Current Epsilon = 9

Instance Maximum Epsilon Preprocessing Time: 0.005861520767211914 s

Time in solver (for this epsilon): 45.82324767112732 s
Elapsed time (for this epsilon): 49.93760085105896 s


Total elapsed time since execution of first epsilon: 113428.13917469978 s


Updated solution vectors:
sol_E = [0.9176730000000001]
sol_C = [15.0]
sol_eps = [9]
